
        $ From http://www.csplib.org/Problems/prob009/data/helmut.pdf
        $ Problem number 196
        $ Sequence length : 25
        language ESSENCE' 1.0
        letting sizemaster be 601
        letting sizes be sequence(7,8,25,34,41,42,46,48,54,55,62,70,71,74,98,103,116,143,168,169,190,192,193,218,240)
        